SPARKNaCl/why3-z3/sparknacl-utils.adb_77_13_postcondition3_1.smt2
;; produced by z3_gnatprove.drv ;;
(set-info :smt-lib-version 2.5)
(set-info :source |VC generated by SPARK 2014|)
(set-info :category industrial)
(set-info :status unknown)
;;; generated by SMT-LIB2 driver
;;; SMT-LIB2 driver: bit-vectors, common part
;;; SMT-LIB2: integer arithmetic
(declare-datatypes ()
  ((int__ref (int__refqtmk (int__content Int)))))

(declare-const two_power_size_minus_one Int)

(declare-datatypes ()
  ((t__ref (t__refqtmk (t__content (_ BitVec 32))))))

;; "uc_of_int"
(define-fun uc_of_int ((x Int)) (_ BitVec 32)
  (ite (<= 0 x) ((_ int2bv 32) x) (bvneg ((_ int2bv 32) (- x)))))

;; "uc_to_int"
(define-fun uc_to_int ((x (_ BitVec 32))) Int
  (ite (= (bvult x ((_ int2bv 32) two_power_size_minus_one)) true)
    (bv2int x)
    (- (bv2int (bvneg x)))))

;; "to_u32__function_guard"
(declare-fun to_u32__function_guard ((_ BitVec 32)
  Int) Bool)

;; "in_range"
(define-fun in_range ((x Int)) Bool
  (and (<= (- 2147483648) x) (<= x 2147483647)))

;; "to_i32__function_guard"
(declare-fun to_i32__function_guard (Int
  (_ BitVec 32)) Bool)

(declare-const mask (_ BitVec 32))

;; "in_range"
(define-fun in_range1 ((x Int)) Bool
  (and (<= (- 2147483648) x) (<= x 2147483647)))

(declare-const p Int)

(declare-const q Int)

(declare-const t (_ BitVec 32))

;; "t'unused"
(define-fun tqtunused () t__ref
  (t__refqtmk t))

;; "q'unused"
(define-fun qqtunused () int__ref
  (int__refqtmk q))

;; "p'unused"
(define-fun pqtunused () int__ref
  (int__refqtmk p))

;; "p'unused"
(define-fun pqtunused1 () int__ref
  (int__refqtmk p))

;; "q'unused"
(define-fun qqtunused1 () int__ref
  (int__refqtmk q))

;; "Assume"
(assert (in_range1 p))

;; "Assume"
(assert (in_range1 q))

;; "Assume"
(assert true)

;; "Assume"
(assert (or (= mask #x00000000) (= mask #xFFFFFFFF)))

;; "int__content'result'unused"
(define-fun int__contentqtresultqtunused () Int
  q)

;; "int__content'result'unused"
(define-fun int__contentqtresultqtunused1 () Int
  p)

;; "int__content'result'unused"
(define-fun int__contentqtresultqtunused2 () Int
  p)

;; "int__content'result'unused"
(define-fun int__contentqtresultqtunused3 () Int
  q)

;; "Assume"
(assert true)

;; "Assume"
(assert true)

;; "H"
(assert (to_u32__function_guard (uc_of_int p) p))

;; "H"
(assert
  (forall ((temp___872 (_ BitVec 32)))
    (to_i32__function_guard (uc_to_int temp___872) temp___872)))

;; "Assume"
(assert (= (let ((temp___872 (uc_of_int p))) (uc_to_int temp___872)) p))

;; "H"
(assert (to_u32__function_guard (uc_of_int q) q))

;; "H"
(assert
  (forall ((temp___876 (_ BitVec 32)))
    (to_i32__function_guard (uc_to_int temp___876) temp___876)))

;; "Assume"
(assert (= (let ((temp___876 (uc_of_int q))) (uc_to_int temp___876)) q))

;; "int__content'result'unused"
(define-fun int__contentqtresultqtunused4 () Int
  q)

;; "o"
(define-fun o () (_ BitVec 32)
  (uc_of_int q))

;; "H"
(assert (to_u32__function_guard o q))

;; "H"
(assert true)

;; "to_u32'result'unused"
(define-fun to_u32qtresultqtunused () (_ BitVec 32)
  o)

;; "int__content'result'unused"
(define-fun int__contentqtresultqtunused5 () Int
  p)

;; "o"
(define-fun o1 () (_ BitVec 32)
  (uc_of_int p))

;; "H"
(assert (to_u32__function_guard o1 p))

;; "H"
(assert true)

;; "to_u32'result'unused"
(define-fun to_u32qtresultqtunused1 () (_ BitVec 32)
  o1)

;; "o"
(define-fun o2 () (_ BitVec 32)
  (bvxor o1 o))

;; "bw_xor'result'unused"
(define-fun bw_xorqtresultqtunused () (_ BitVec 32)
  o2)

;; "o"
(define-fun o3 () (_ BitVec 32)
  (bvand mask o2))

;; "bw_and'result'unused"
(define-fun bw_andqtresultqtunused () (_ BitVec 32)
  o3)

(declare-const t1 (_ BitVec 32))

;; "t'unused"
(define-fun tqtunused1 () t__ref
  (t__refqtmk t1))

;; "H"
(assert (= t1 o3))

;; "H"
(assert (to_u32__function_guard (uc_of_int p) p))

;; "H"
(assert (to_u32__function_guard (uc_of_int q) q))

;; "Assert"
(assert
  (and
    (=> (= mask #xFFFFFFFF) (= t1 (bvxor (uc_of_int p) (uc_of_int q))))
    (=> (= mask #x00000000) (= t1 #x00000000))))

;; "H"
(assert (to_u32__function_guard (uc_of_int p) p))

;; "H"
(assert (to_u32__function_guard (uc_of_int p) p))

;; "H"
(assert (to_u32__function_guard (uc_of_int q) q))

;; "H"
(assert (to_u32__function_guard (uc_of_int q) q))

;; "Assume"
(assert
  (= (bvxor (uc_of_int p) (bvxor (uc_of_int p) (uc_of_int q))) (uc_of_int q)))

;; "H"
(assert (to_u32__function_guard (uc_of_int q) q))

;; "H"
(assert (to_u32__function_guard (uc_of_int p) p))

;; "H"
(assert (to_u32__function_guard (uc_of_int q) q))

;; "H"
(assert (to_u32__function_guard (uc_of_int p) p))

;; "Assume"
(assert
  (= (bvxor (uc_of_int q) (bvxor (uc_of_int p) (uc_of_int q))) (uc_of_int p)))

;; "H"
(assert (to_u32__function_guard (uc_of_int p) p))

;; "H"
(assert (to_u32__function_guard (uc_of_int p) p))

;; "Assume"
(assert (= (bvxor (uc_of_int p) #x00000000) (uc_of_int p)))

;; "H"
(assert (to_u32__function_guard (uc_of_int q) q))

;; "H"
(assert (to_u32__function_guard (uc_of_int q) q))

;; "Assume"
(assert (= (bvxor (uc_of_int q) #x00000000) (uc_of_int q)))

;; "H"
(assert (to_u32__function_guard (uc_of_int p) p))

;; "H"
(assert (to_u32__function_guard (uc_of_int p) p))

;; "H"
(assert (to_u32__function_guard (uc_of_int q) q))

;; "H"
(assert
  (forall ((temp___913 (_ BitVec 32)))
    (to_i32__function_guard (uc_to_int temp___913) temp___913)))

;; "Assume"
(assert
  (= (let ((temp___913 (bvxor (uc_of_int p) (bvxor (uc_of_int p) (uc_of_int
                                                                   q)))))
       (uc_to_int temp___913)) q))

;; "H"
(assert (to_u32__function_guard (uc_of_int q) q))

;; "H"
(assert (to_u32__function_guard (uc_of_int p) p))

;; "H"
(assert (to_u32__function_guard (uc_of_int q) q))

;; "H"
(assert
  (forall ((temp___921 (_ BitVec 32)))
    (to_i32__function_guard (uc_to_int temp___921) temp___921)))

;; "Assume"
(assert
  (= (let ((temp___921 (bvxor (uc_of_int q) (bvxor (uc_of_int p) (uc_of_int
                                                                   q)))))
       (uc_to_int temp___921)) p))

;; "H"
(assert (to_u32__function_guard (uc_of_int p) p))

;; "H"
(assert
  (forall ((temp___925 (_ BitVec 32)))
    (to_i32__function_guard (uc_to_int temp___925) temp___925)))

;; "Assume"
(assert
  (= (let ((temp___925 (bvxor (uc_of_int p) #x00000000)))
       (uc_to_int temp___925)) p))

;; "H"
(assert (to_u32__function_guard (uc_of_int q) q))

;; "H"
(assert
  (forall ((temp___929 (_ BitVec 32)))
    (to_i32__function_guard (uc_to_int temp___929) temp___929)))

;; "Assume"
(assert
  (= (let ((temp___929 (bvxor (uc_of_int q) #x00000000)))
       (uc_to_int temp___929)) q))

;; "t__content'result'unused"
(define-fun t__contentqtresultqtunused () (_ BitVec 32)
  t1)

;; "int__content'result'unused"
(define-fun int__contentqtresultqtunused6 () Int
  p)

;; "o"
(define-fun o4 () (_ BitVec 32)
  (uc_of_int p))

;; "H"
(assert (to_u32__function_guard o4 p))

;; "H"
(assert true)

;; "to_u32'result'unused"
(define-fun to_u32qtresultqtunused2 () (_ BitVec 32)
  o4)

;; "o"
(define-fun o5 () (_ BitVec 32)
  (bvxor o4 t1))

;; "bw_xor'result'unused"
(define-fun bw_xorqtresultqtunused1 () (_ BitVec 32)
  o5)

;; "o"
(define-fun o6 () Int
  (uc_to_int o5))

;; "H"
(assert (to_i32__function_guard o6 o5))

;; "H"
(assert (in_range o6))

;; "to_i32'result'unused"
(define-fun to_i32qtresultqtunused () Int
  o6)

(declare-const p1 Int)

;; "p'unused"
(define-fun pqtunused2 () int__ref
  (int__refqtmk p1))

;; "H"
(assert (= p1 o6))

;; "t__content'result'unused"
(define-fun t__contentqtresultqtunused1 () (_ BitVec 32)
  t1)

;; "int__content'result'unused"
(define-fun int__contentqtresultqtunused7 () Int
  q)

;; "o"
(define-fun o7 () (_ BitVec 32)
  (uc_of_int q))

;; "H"
(assert (to_u32__function_guard o7 q))

;; "H"
(assert true)

;; "to_u32'result'unused"
(define-fun to_u32qtresultqtunused3 () (_ BitVec 32)
  o7)

;; "o"
(define-fun o8 () (_ BitVec 32)
  (bvxor o7 t1))

;; "bw_xor'result'unused"
(define-fun bw_xorqtresultqtunused2 () (_ BitVec 32)
  o8)

;; "o"
(define-fun o9 () Int
  (uc_to_int o8))

;; "H"
(assert (to_i32__function_guard o9 o8))

;; "H"
(assert (in_range o9))

;; "to_i32'result'unused"
(define-fun to_i32qtresultqtunused1 () Int
  o9)

(declare-const q1 Int)

;; "q'unused"
(define-fun qqtunused2 () int__ref
  (int__refqtmk q1))

;; "H"
(assert (= q1 o9))

;; "t__content'result'unused"
(define-fun t__contentqtresultqtunused2 () (_ BitVec 32)
  t1)

(declare-const t2 (_ BitVec 32))

;; "H"
(assert true)

;; "H"
(assert true)

;; "H"
(assert true)

;; "H"
(assert (= mask #x00000000))

;; Goal "def'vc"
;; File "sparknacl-utils.adb", line 70, characters 0-0
(assert
  (not (= p1 p)))

(check-sat)
